5 6 77
3 3 1 5 2 3 3 12 34 34 52 52 76 
4 1 1 5 1 3 2 4 2 4 18 22 30 37 47 47 77 
3 2 1 2 2 2 3 5 37 37 49 49 77 
3 4 1 1 2 1 3 15 27 27 47 47 65 
10 1 1 3 1 3 1 5 1 5 1 1 2 4 2 3 2 3 2 3 3 0 4 4 9 9 12 12 18 18 22 22 26 27 31 31 34 34 37 47 50 
5 2 1 4 1 4 1 5 2 5 2 0 5 5 9 9 15 26 30 30 33 
